(set-info :smt-lib-version 2.6)
(set-logic QF_NIA)
(set-info :source |
Generated by: Cristina Borralleras, Daniel Larraz, Albert Oliveras, Enric Rodriguez-Carbonell, Albert Rubio
Generated on: 2017-04-27
Generator: VeryMax
Application: Termination proving
Target solver: barcelogic
|)
(set-info :license "https://creativecommons.org/licenses/by/4.0/")
(set-info :category "industrial")
(set-info :status sat)
(declare-fun Nl5arg11 () Int)
(declare-fun Nl5arg21 () Int)
(declare-fun Nl5arg31 () Int)
(declare-fun Nl5arg12 () Int)
(declare-fun Nl5arg22 () Int)
(declare-fun Nl5arg32 () Int)
(declare-fun Nl5arg13 () Int)
(declare-fun Nl5arg23 () Int)
(declare-fun Nl5arg33 () Int)
(declare-fun lam0n0 () Int)
(declare-fun lam0n1 () Int)
(declare-fun lam0n2 () Int)
(declare-fun lam0n3 () Int)
(declare-fun lam0n4 () Int)
(declare-fun lam0n5 () Int)
(declare-fun lam0n6 () Int)
(declare-fun lam0n7 () Int)
(declare-fun UndefCntr0_CT () Int)
(declare-fun Nl5CT1 () Int)
(declare-fun Nl5CT2 () Int)
(declare-fun Nl5CT3 () Int)
(declare-fun UndefCntr0_arg1 () Int)
(declare-fun UndefCntr0_arg2 () Int)
(declare-fun UndefCntr0_arg3 () Int)
(declare-fun UndefCntr0_undef133 () Int)
(declare-fun UndefCntr0_undef134 () Int)
(declare-fun UndefCntr0_undef135 () Int)
(declare-fun UndefCntr0_undef138 () Int)
(declare-fun lam1n0 () Int)
(declare-fun lam1n1 () Int)
(declare-fun lam1n2 () Int)
(declare-fun lam1n3 () Int)
(declare-fun lam1n4 () Int)
(declare-fun lam1n5 () Int)
(declare-fun lam1n6 () Int)
(declare-fun lam1n7 () Int)
(declare-fun lam2n0 () Int)
(declare-fun lam2n1 () Int)
(declare-fun lam2n2 () Int)
(declare-fun lam2n3 () Int)
(declare-fun lam2n4 () Int)
(declare-fun lam2n5 () Int)
(declare-fun lam2n6 () Int)
(declare-fun lam2n7 () Int)
(declare-fun lam3n0 () Int)
(declare-fun lam3n1 () Int)
(declare-fun lam3n2 () Int)
(declare-fun lam3n3 () Int)
(declare-fun lam3n4 () Int)
(declare-fun lam3n5 () Int)
(declare-fun lam3n6 () Int)
(declare-fun lam3n7 () Int)
(declare-fun lam4n0 () Int)
(declare-fun lam4n1 () Int)
(declare-fun lam4n2 () Int)
(declare-fun lam4n3 () Int)
(declare-fun lam4n4 () Int)
(declare-fun lam4n5 () Int)
(declare-fun lam5n0 () Int)
(declare-fun lam5n1 () Int)
(declare-fun lam5n2 () Int)
(declare-fun lam5n3 () Int)
(declare-fun lam5n4 () Int)
(declare-fun lam5n5 () Int)
(declare-fun lam6n0 () Int)
(declare-fun lam6n1 () Int)
(declare-fun lam6n2 () Int)
(declare-fun lam6n3 () Int)
(declare-fun lam6n4 () Int)
(declare-fun lam6n5 () Int)
(declare-fun lam7n0 () Int)
(declare-fun lam7n1 () Int)
(declare-fun lam7n2 () Int)
(declare-fun lam7n3 () Int)
(declare-fun lam7n4 () Int)
(declare-fun lam7n5 () Int)
(declare-fun lam7n6 () Int)
(declare-fun lam7n7 () Int)
(declare-fun lam7n8 () Int)
(declare-fun lam7n9 () Int)
(declare-fun lam8n0 () Int)
(declare-fun lam8n1 () Int)
(declare-fun lam8n2 () Int)
(declare-fun lam8n3 () Int)
(declare-fun lam8n4 () Int)
(declare-fun lam8n5 () Int)
(declare-fun lam8n6 () Int)
(declare-fun lam8n7 () Int)
(declare-fun lam8n8 () Int)
(declare-fun lam8n9 () Int)
(declare-fun lam9n0 () Int)
(declare-fun lam9n1 () Int)
(declare-fun lam9n2 () Int)
(declare-fun lam9n3 () Int)
(declare-fun lam9n4 () Int)
(declare-fun lam9n5 () Int)
(declare-fun lam9n6 () Int)
(declare-fun lam9n7 () Int)
(declare-fun lam9n8 () Int)
(declare-fun lam9n9 () Int)
(declare-fun lam10n0 () Int)
(declare-fun lam10n1 () Int)
(declare-fun lam10n2 () Int)
(declare-fun lam10n3 () Int)
(declare-fun lam10n4 () Int)
(declare-fun lam10n5 () Int)
(declare-fun lam10n6 () Int)
(declare-fun lam10n7 () Int)
(declare-fun lam10n8 () Int)
(declare-fun lam10n9 () Int)
(declare-fun lam10n10 () Int)
(declare-fun lam11n0 () Int)
(declare-fun lam11n1 () Int)
(declare-fun lam11n2 () Int)
(declare-fun lam11n3 () Int)
(declare-fun lam11n4 () Int)
(declare-fun lam11n5 () Int)
(declare-fun lam11n6 () Int)
(declare-fun lam11n7 () Int)
(declare-fun lam11n8 () Int)
(declare-fun lam11n9 () Int)
(declare-fun lam11n10 () Int)
(declare-fun lam12n0 () Int)
(declare-fun lam12n1 () Int)
(declare-fun lam12n2 () Int)
(declare-fun lam12n3 () Int)
(declare-fun lam12n4 () Int)
(declare-fun lam12n5 () Int)
(declare-fun lam12n6 () Int)
(declare-fun lam12n7 () Int)
(declare-fun lam12n8 () Int)
(declare-fun lam12n9 () Int)
(declare-fun lam12n10 () Int)
(declare-fun lam13n0 () Int)
(declare-fun lam13n1 () Int)
(declare-fun lam13n2 () Int)
(declare-fun lam13n3 () Int)
(declare-fun lam13n4 () Int)
(declare-fun lam13n5 () Int)
(declare-fun lam13n6 () Int)
(declare-fun lam14n0 () Int)
(declare-fun lam14n1 () Int)
(declare-fun lam14n2 () Int)
(declare-fun lam14n3 () Int)
(declare-fun lam14n4 () Int)
(declare-fun lam14n5 () Int)
(declare-fun lam14n6 () Int)
(declare-fun lam15n0 () Int)
(declare-fun lam15n1 () Int)
(declare-fun lam15n2 () Int)
(declare-fun lam15n3 () Int)
(declare-fun lam15n4 () Int)
(declare-fun lam15n5 () Int)
(declare-fun lam15n6 () Int)
(declare-fun lam16n0 () Int)
(declare-fun lam16n1 () Int)
(declare-fun lam16n2 () Int)
(declare-fun lam16n3 () Int)
(declare-fun lam16n4 () Int)
(declare-fun lam16n5 () Int)
(declare-fun lam16n6 () Int)
(declare-fun lam16n7 () Int)
(declare-fun lam16n8 () Int)
(declare-fun lam16n9 () Int)
(declare-fun lam16n10 () Int)
(declare-fun lam17n0 () Int)
(declare-fun lam17n1 () Int)
(declare-fun lam17n2 () Int)
(declare-fun lam17n3 () Int)
(declare-fun lam17n4 () Int)
(declare-fun lam17n5 () Int)
(declare-fun lam17n6 () Int)
(declare-fun lam17n7 () Int)
(declare-fun lam17n8 () Int)
(declare-fun lam17n9 () Int)
(declare-fun lam17n10 () Int)
(declare-fun lam18n0 () Int)
(declare-fun lam18n1 () Int)
(declare-fun lam18n2 () Int)
(declare-fun lam18n3 () Int)
(declare-fun lam18n4 () Int)
(declare-fun lam18n5 () Int)
(declare-fun lam18n6 () Int)
(declare-fun lam18n7 () Int)
(declare-fun lam18n8 () Int)
(declare-fun lam18n9 () Int)
(declare-fun lam18n10 () Int)
(declare-fun lam19n0 () Int)
(declare-fun lam19n1 () Int)
(declare-fun lam19n2 () Int)
(declare-fun lam19n3 () Int)
(declare-fun lam19n4 () Int)
(declare-fun lam19n5 () Int)
(declare-fun lam19n6 () Int)
(declare-fun lam19n7 () Int)
(declare-fun lam19n8 () Int)
(declare-fun lam19n9 () Int)
(declare-fun lam19n10 () Int)
(declare-fun lam19n11 () Int)
(declare-fun lam20n0 () Int)
(declare-fun lam20n1 () Int)
(declare-fun lam20n2 () Int)
(declare-fun lam20n3 () Int)
(declare-fun lam20n4 () Int)
(declare-fun lam20n5 () Int)
(declare-fun lam20n6 () Int)
(declare-fun lam20n7 () Int)
(declare-fun lam20n8 () Int)
(declare-fun lam20n9 () Int)
(declare-fun lam20n10 () Int)
(declare-fun lam20n11 () Int)
(declare-fun lam21n0 () Int)
(declare-fun lam21n1 () Int)
(declare-fun lam21n2 () Int)
(declare-fun lam21n3 () Int)
(declare-fun lam21n4 () Int)
(declare-fun lam21n5 () Int)
(declare-fun lam21n6 () Int)
(declare-fun lam21n7 () Int)
(declare-fun lam21n8 () Int)
(declare-fun lam21n9 () Int)
(declare-fun lam21n10 () Int)
(declare-fun lam21n11 () Int)
(declare-fun lam22n0 () Int)
(declare-fun lam22n1 () Int)
(declare-fun lam22n2 () Int)
(declare-fun lam22n3 () Int)
(declare-fun lam23n0 () Int)
(declare-fun lam23n1 () Int)
(declare-fun lam23n2 () Int)
(declare-fun lam23n3 () Int)
(declare-fun lam24n0 () Int)
(declare-fun lam24n1 () Int)
(declare-fun lam24n2 () Int)
(declare-fun lam24n3 () Int)
(declare-fun lam25n0 () Int)
(declare-fun lam25n1 () Int)
(declare-fun lam25n2 () Int)
(declare-fun lam25n3 () Int)
(declare-fun lam26n0 () Int)
(declare-fun lam26n1 () Int)
(declare-fun lam26n2 () Int)
(declare-fun lam26n3 () Int)
(declare-fun lam27n0 () Int)
(declare-fun lam27n1 () Int)
(declare-fun lam27n2 () Int)
(declare-fun lam27n3 () Int)
(declare-fun lam28n0 () Int)
(declare-fun lam28n1 () Int)
(declare-fun lam28n2 () Int)
(declare-fun lam28n3 () Int)
(declare-fun lam28n4 () Int)
(declare-fun lam28n5 () Int)
(declare-fun lam28n6 () Int)
(declare-fun lam28n7 () Int)
(declare-fun lam28n8 () Int)
(declare-fun lam28n9 () Int)
(declare-fun lam28n10 () Int)
(declare-fun lam28n11 () Int)
(declare-fun lam28n12 () Int)
(declare-fun lam28n13 () Int)
(declare-fun lam28n14 () Int)
(declare-fun lam28n15 () Int)
(declare-fun lam29n0 () Int)
(declare-fun lam29n1 () Int)
(declare-fun lam29n2 () Int)
(declare-fun lam29n3 () Int)
(declare-fun lam29n4 () Int)
(declare-fun lam29n5 () Int)
(declare-fun lam29n6 () Int)
(declare-fun lam29n7 () Int)
(declare-fun lam29n8 () Int)
(declare-fun lam29n9 () Int)
(declare-fun lam29n10 () Int)
(declare-fun lam29n11 () Int)
(declare-fun lam29n12 () Int)
(declare-fun lam29n13 () Int)
(declare-fun lam29n14 () Int)
(declare-fun lam29n15 () Int)
(declare-fun lam30n0 () Int)
(declare-fun lam30n1 () Int)
(declare-fun lam30n2 () Int)
(declare-fun lam30n3 () Int)
(declare-fun lam30n4 () Int)
(declare-fun lam30n5 () Int)
(declare-fun lam30n6 () Int)
(declare-fun lam30n7 () Int)
(declare-fun lam30n8 () Int)
(declare-fun lam30n9 () Int)
(declare-fun lam30n10 () Int)
(declare-fun lam30n11 () Int)
(declare-fun lam30n12 () Int)
(declare-fun lam30n13 () Int)
(declare-fun lam30n14 () Int)
(declare-fun lam30n15 () Int)
(declare-fun lam31n0 () Int)
(declare-fun lam31n1 () Int)
(declare-fun lam31n2 () Int)
(declare-fun lam31n3 () Int)
(declare-fun lam31n4 () Int)
(declare-fun lam31n5 () Int)
(declare-fun lam31n6 () Int)
(declare-fun lam31n7 () Int)
(declare-fun lam31n8 () Int)
(declare-fun lam31n9 () Int)
(declare-fun lam31n10 () Int)
(declare-fun lam31n11 () Int)
(declare-fun lam31n12 () Int)
(declare-fun lam31n13 () Int)
(declare-fun lam31n14 () Int)
(declare-fun lam31n15 () Int)
(declare-fun lam32n0 () Int)
(declare-fun lam32n1 () Int)
(declare-fun lam32n2 () Int)
(declare-fun lam32n3 () Int)
(declare-fun lam32n4 () Int)
(declare-fun lam32n5 () Int)
(declare-fun lam32n6 () Int)
(declare-fun lam32n7 () Int)
(declare-fun lam32n8 () Int)
(declare-fun lam32n9 () Int)
(declare-fun lam32n10 () Int)
(declare-fun lam32n11 () Int)
(declare-fun lam32n12 () Int)
(declare-fun lam32n13 () Int)
(declare-fun lam32n14 () Int)
(declare-fun lam32n15 () Int)
(declare-fun lam33n0 () Int)
(declare-fun lam33n1 () Int)
(declare-fun lam33n2 () Int)
(declare-fun lam33n3 () Int)
(declare-fun lam33n4 () Int)
(declare-fun lam33n5 () Int)
(declare-fun lam33n6 () Int)
(declare-fun lam33n7 () Int)
(declare-fun lam33n8 () Int)
(declare-fun lam33n9 () Int)
(declare-fun lam33n10 () Int)
(declare-fun lam33n11 () Int)
(declare-fun lam33n12 () Int)
(declare-fun lam33n13 () Int)
(declare-fun lam33n14 () Int)
(declare-fun lam33n15 () Int)
(declare-fun lam34n0 () Int)
(declare-fun lam34n1 () Int)
(declare-fun lam34n2 () Int)
(declare-fun lam34n3 () Int)
(declare-fun lam34n4 () Int)
(declare-fun lam34n5 () Int)
(declare-fun lam34n6 () Int)
(declare-fun lam34n7 () Int)
(declare-fun lam34n8 () Int)
(declare-fun lam34n9 () Int)
(declare-fun lam34n10 () Int)
(declare-fun lam34n11 () Int)
(declare-fun lam34n12 () Int)
(declare-fun lam34n13 () Int)
(declare-fun lam34n14 () Int)
(declare-fun lam34n15 () Int)
(declare-fun lam34n16 () Int)
(declare-fun lam35n0 () Int)
(declare-fun lam35n1 () Int)
(declare-fun lam35n2 () Int)
(declare-fun lam35n3 () Int)
(declare-fun lam35n4 () Int)
(declare-fun lam35n5 () Int)
(declare-fun lam35n6 () Int)
(declare-fun lam35n7 () Int)
(declare-fun lam35n8 () Int)
(declare-fun lam35n9 () Int)
(declare-fun lam35n10 () Int)
(declare-fun lam35n11 () Int)
(declare-fun lam35n12 () Int)
(declare-fun lam35n13 () Int)
(declare-fun lam35n14 () Int)
(declare-fun lam35n15 () Int)
(declare-fun lam35n16 () Int)
(declare-fun lam36n0 () Int)
(declare-fun lam36n1 () Int)
(declare-fun lam36n2 () Int)
(declare-fun lam36n3 () Int)
(declare-fun lam36n4 () Int)
(declare-fun lam36n5 () Int)
(declare-fun lam36n6 () Int)
(declare-fun lam36n7 () Int)
(declare-fun lam36n8 () Int)
(declare-fun lam36n9 () Int)
(declare-fun lam36n10 () Int)
(declare-fun lam36n11 () Int)
(declare-fun lam36n12 () Int)
(declare-fun lam36n13 () Int)
(declare-fun lam36n14 () Int)
(declare-fun lam36n15 () Int)
(declare-fun lam36n16 () Int)
(declare-fun undef6 () Int)
(declare-fun undef139 () Int)
(declare-fun undef32 () Int)
(declare-fun undef140 () Int)
(declare-fun undef33 () Int)
(declare-fun undef34 () Int)
(declare-fun undef37 () Int)
(declare-fun undef21 () Int)
(declare-fun undef26 () Int)
(declare-fun undef42 () Int)
(declare-fun undef22 () Int)
(declare-fun undef23 () Int)
(declare-fun undef43 () Int)
(declare-fun undef48 () Int)
(declare-fun undef49 () Int)
(declare-fun undef11 () Int)
(declare-fun undef12 () Int)
(declare-fun undef27 () Int)
(declare-fun undef28 () Int)
(declare-fun undef29 () Int)
(declare-fun undef50 () Int)
(declare-fun undef51 () Int)
(declare-fun undef52 () Int)
(declare-fun arg1 () Int)
(declare-fun undef79 () Int)
(declare-fun arg2 () Int)
(declare-fun undef80 () Int)
(declare-fun undef100 () Int)
(declare-fun undef81 () Int)
(declare-fun undef84 () Int)
(declare-fun undef105 () Int)
(declare-fun arg3 () Int)
(declare-fun undef83 () Int)
(declare-fun undef101 () Int)
(declare-fun undef102 () Int)
(declare-fun undef85 () Int)
(declare-fun undef86 () Int)
(declare-fun undef90 () Int)
(declare-fun undef91 () Int)
(declare-fun undef89 () Int)
(declare-fun undef92 () Int)
(declare-fun undef93 () Int)
(declare-fun undef97 () Int)
(declare-fun undef99 () Int)
(declare-fun undef98 () Int)
(declare-fun undef96 () Int)
(declare-fun FV_arg1_1 () Int)
(declare-fun FV_arg2_1 () Int)
(declare-fun FV_arg3_1 () Int)
(declare-fun lam37n0 () Int)
(declare-fun lam37n1 () Int)
(declare-fun lam37n2 () Int)
(declare-fun lam37n3 () Int)
(declare-fun lam37n4 () Int)
(declare-fun lam38n0 () Int)
(declare-fun lam38n1 () Int)
(declare-fun lam38n2 () Int)
(declare-fun lam38n3 () Int)
(declare-fun lam38n4 () Int)
(declare-fun UndefDef0undef133_CT () Int)
(declare-fun UndefDef0undef133_arg1 () Int)
(declare-fun UndefDef0undef133_arg2 () Int)
(declare-fun UndefDef0undef133_arg3 () Int)
(declare-fun lam39n0 () Int)
(declare-fun lam39n1 () Int)
(declare-fun lam39n2 () Int)
(declare-fun lam39n3 () Int)
(declare-fun lam39n4 () Int)
(declare-fun lam40n0 () Int)
(declare-fun lam40n1 () Int)
(declare-fun lam40n2 () Int)
(declare-fun lam40n3 () Int)
(declare-fun lam40n4 () Int)
(declare-fun FV_undef138_0 () Int)
(declare-fun FV_arg1_0 () Int)
(declare-fun FV_arg2_0 () Int)
(declare-fun FV_arg3_0 () Int)
(declare-fun FV_undef133_0 () Int)
(declare-fun FV_undef134_0 () Int)
(declare-fun FV_undef135_0 () Int)
(declare-fun lam41n0 () Int)
(declare-fun lam41n1 () Int)
(declare-fun lam41n2 () Int)
(declare-fun lam41n3 () Int)
(declare-fun FV_arg1_2 () Int)
(declare-fun FV_arg2_2 () Int)
(declare-fun FV_arg3_2 () Int)
(declare-fun FV_undef133_2 () Int)
(declare-fun FV_undef138_2 () Int)
(assert ( and ( <= ( - 1 ) Nl5arg11 ) ( <= Nl5arg11 1 ) ( <= ( - 1 ) Nl5arg21 ) ( <= Nl5arg21 1 ) ( <= ( - 1 ) Nl5arg31 ) ( <= Nl5arg31 1 ) ( <= ( - 1 ) Nl5arg12 ) ( <= Nl5arg12 1 ) ( <= ( - 1 ) Nl5arg22 ) ( <= Nl5arg22 1 ) ( <= ( - 1 ) Nl5arg32 ) ( <= Nl5arg32 1 ) ( <= ( - 1 ) Nl5arg13 ) ( <= Nl5arg13 1 ) ( <= ( - 1 ) Nl5arg23 ) ( <= Nl5arg23 1 ) ( <= ( - 1 ) Nl5arg33 ) ( <= Nl5arg33 1 ) ))
(assert ( or ( and ( >= lam0n0 0 ) ( >= lam0n1 0 ) ( >= lam0n2 0 ) ( >= lam0n3 0 ) ( >= lam0n4 0 ) ( >= lam0n5 0 ) ( >= lam0n6 0 ) ( >= lam0n7 0 ) ( > ( + ( * 1 lam0n1 ) ( * 1 lam0n2 ) ( * 1 lam0n3 ) ( * UndefCntr0_CT lam0n4 ) ( * Nl5CT1 lam0n5 ) ( * Nl5CT2 lam0n6 ) ( * Nl5CT3 lam0n7 ) ( - 1 ) ) 0 ) ( = ( + ( * ( - 1 ) lam0n0 ) ( * ( - 1 ) lam0n1 ) ( * UndefCntr0_arg1 lam0n4 ) ( * Nl5arg11 lam0n5 ) ( * Nl5arg12 lam0n6 ) ( * Nl5arg13 lam0n7 ) ) 0 ) ( = ( + ( * UndefCntr0_arg2 lam0n4 ) ( * Nl5arg21 lam0n5 ) ( * Nl5arg22 lam0n6 ) ( * Nl5arg23 lam0n7 ) ) 0 ) ( = ( + ( * UndefCntr0_arg3 lam0n4 ) ( * Nl5arg31 lam0n5 ) ( * Nl5arg32 lam0n6 ) ( * Nl5arg33 lam0n7 ) ) 0 ) ( = ( + ( * 1 lam0n0 ) ( * ( - 1 ) lam0n2 ) ( * UndefCntr0_undef133 lam0n4 ) ) 0 ) ( = ( * UndefCntr0_undef134 lam0n4 ) 0 ) ( = ( * UndefCntr0_undef135 lam0n4 ) 0 ) ( = ( + ( * ( - 1 ) lam0n3 ) ( * UndefCntr0_undef138 lam0n4 ) ) 0 ) ) ( and ( >= lam1n0 0 ) ( >= lam1n1 0 ) ( >= lam1n2 0 ) ( >= lam1n3 0 ) ( >= lam1n4 0 ) ( >= lam1n5 0 ) ( >= lam1n6 0 ) ( >= lam1n7 0 ) ( > ( + ( * 1 lam1n1 ) ( * 1 lam1n2 ) ( * 1 lam1n3 ) ( * UndefCntr0_CT lam1n4 ) ( * Nl5CT1 lam1n5 ) ( * Nl5CT2 lam1n6 ) ( * Nl5CT3 lam1n7 ) ( - 1 ( + ( + ( + Nl5CT1 ( * Nl5arg11 0 ) ) ( * Nl5arg21 0 ) ) ( * Nl5arg31 0 ) ) ) ) 0 ) ( = ( + ( * ( - 1 ) lam1n0 ) ( * ( - 1 ) lam1n1 ) ( * UndefCntr0_arg1 lam1n4 ) ( * Nl5arg11 lam1n5 ) ( * Nl5arg12 lam1n6 ) ( * Nl5arg13 lam1n7 ) ) 0 ) ( = ( + ( * UndefCntr0_arg2 lam1n4 ) ( * Nl5arg21 lam1n5 ) ( * Nl5arg22 lam1n6 ) ( * Nl5arg23 lam1n7 ) ) 0 ) ( = ( + ( * UndefCntr0_arg3 lam1n4 ) ( * Nl5arg31 lam1n5 ) ( * Nl5arg32 lam1n6 ) ( * Nl5arg33 lam1n7 ) ) 0 ) ( = ( + ( * 1 lam1n0 ) ( * ( - 1 ) lam1n2 ) ( * UndefCntr0_undef133 lam1n4 ) ( - ( + 0 ( * Nl5arg11 1 ) ) ) ) 0 ) ( = ( + ( * UndefCntr0_undef134 lam1n4 ) ( - ( + 0 ( * Nl5arg21 1 ) ) ) ) 0 ) ( = ( + ( * UndefCntr0_undef135 lam1n4 ) ( - ( + 0 ( * Nl5arg31 1 ) ) ) ) 0 ) ( = ( + ( * ( - 1 ) lam1n3 ) ( * UndefCntr0_undef138 lam1n4 ) ) 0 ) ) ))
(assert ( or ( and ( >= lam0n0 0 ) ( >= lam0n1 0 ) ( >= lam0n2 0 ) ( >= lam0n3 0 ) ( >= lam0n4 0 ) ( >= lam0n5 0 ) ( >= lam0n6 0 ) ( >= lam0n7 0 ) ( > ( + ( * 1 lam0n1 ) ( * 1 lam0n2 ) ( * 1 lam0n3 ) ( * UndefCntr0_CT lam0n4 ) ( * Nl5CT1 lam0n5 ) ( * Nl5CT2 lam0n6 ) ( * Nl5CT3 lam0n7 ) ( - 1 ) ) 0 ) ( = ( + ( * ( - 1 ) lam0n0 ) ( * ( - 1 ) lam0n1 ) ( * UndefCntr0_arg1 lam0n4 ) ( * Nl5arg11 lam0n5 ) ( * Nl5arg12 lam0n6 ) ( * Nl5arg13 lam0n7 ) ) 0 ) ( = ( + ( * UndefCntr0_arg2 lam0n4 ) ( * Nl5arg21 lam0n5 ) ( * Nl5arg22 lam0n6 ) ( * Nl5arg23 lam0n7 ) ) 0 ) ( = ( + ( * UndefCntr0_arg3 lam0n4 ) ( * Nl5arg31 lam0n5 ) ( * Nl5arg32 lam0n6 ) ( * Nl5arg33 lam0n7 ) ) 0 ) ( = ( + ( * 1 lam0n0 ) ( * ( - 1 ) lam0n2 ) ( * UndefCntr0_undef133 lam0n4 ) ) 0 ) ( = ( * UndefCntr0_undef134 lam0n4 ) 0 ) ( = ( * UndefCntr0_undef135 lam0n4 ) 0 ) ( = ( + ( * ( - 1 ) lam0n3 ) ( * UndefCntr0_undef138 lam0n4 ) ) 0 ) ) ( and ( >= lam2n0 0 ) ( >= lam2n1 0 ) ( >= lam2n2 0 ) ( >= lam2n3 0 ) ( >= lam2n4 0 ) ( >= lam2n5 0 ) ( >= lam2n6 0 ) ( >= lam2n7 0 ) ( > ( + ( * 1 lam2n1 ) ( * 1 lam2n2 ) ( * 1 lam2n3 ) ( * UndefCntr0_CT lam2n4 ) ( * Nl5CT1 lam2n5 ) ( * Nl5CT2 lam2n6 ) ( * Nl5CT3 lam2n7 ) ( - 1 ( + ( + ( + Nl5CT2 ( * Nl5arg12 0 ) ) ( * Nl5arg22 0 ) ) ( * Nl5arg32 0 ) ) ) ) 0 ) ( = ( + ( * ( - 1 ) lam2n0 ) ( * ( - 1 ) lam2n1 ) ( * UndefCntr0_arg1 lam2n4 ) ( * Nl5arg11 lam2n5 ) ( * Nl5arg12 lam2n6 ) ( * Nl5arg13 lam2n7 ) ) 0 ) ( = ( + ( * UndefCntr0_arg2 lam2n4 ) ( * Nl5arg21 lam2n5 ) ( * Nl5arg22 lam2n6 ) ( * Nl5arg23 lam2n7 ) ) 0 ) ( = ( + ( * UndefCntr0_arg3 lam2n4 ) ( * Nl5arg31 lam2n5 ) ( * Nl5arg32 lam2n6 ) ( * Nl5arg33 lam2n7 ) ) 0 ) ( = ( + ( * 1 lam2n0 ) ( * ( - 1 ) lam2n2 ) ( * UndefCntr0_undef133 lam2n4 ) ( - ( + 0 ( * Nl5arg12 1 ) ) ) ) 0 ) ( = ( + ( * UndefCntr0_undef134 lam2n4 ) ( - ( + 0 ( * Nl5arg22 1 ) ) ) ) 0 ) ( = ( + ( * UndefCntr0_undef135 lam2n4 ) ( - ( + 0 ( * Nl5arg32 1 ) ) ) ) 0 ) ( = ( + ( * ( - 1 ) lam2n3 ) ( * UndefCntr0_undef138 lam2n4 ) ) 0 ) ) ))
(assert ( or ( and ( >= lam0n0 0 ) ( >= lam0n1 0 ) ( >= lam0n2 0 ) ( >= lam0n3 0 ) ( >= lam0n4 0 ) ( >= lam0n5 0 ) ( >= lam0n6 0 ) ( >= lam0n7 0 ) ( > ( + ( * 1 lam0n1 ) ( * 1 lam0n2 ) ( * 1 lam0n3 ) ( * UndefCntr0_CT lam0n4 ) ( * Nl5CT1 lam0n5 ) ( * Nl5CT2 lam0n6 ) ( * Nl5CT3 lam0n7 ) ( - 1 ) ) 0 ) ( = ( + ( * ( - 1 ) lam0n0 ) ( * ( - 1 ) lam0n1 ) ( * UndefCntr0_arg1 lam0n4 ) ( * Nl5arg11 lam0n5 ) ( * Nl5arg12 lam0n6 ) ( * Nl5arg13 lam0n7 ) ) 0 ) ( = ( + ( * UndefCntr0_arg2 lam0n4 ) ( * Nl5arg21 lam0n5 ) ( * Nl5arg22 lam0n6 ) ( * Nl5arg23 lam0n7 ) ) 0 ) ( = ( + ( * UndefCntr0_arg3 lam0n4 ) ( * Nl5arg31 lam0n5 ) ( * Nl5arg32 lam0n6 ) ( * Nl5arg33 lam0n7 ) ) 0 ) ( = ( + ( * 1 lam0n0 ) ( * ( - 1 ) lam0n2 ) ( * UndefCntr0_undef133 lam0n4 ) ) 0 ) ( = ( * UndefCntr0_undef134 lam0n4 ) 0 ) ( = ( * UndefCntr0_undef135 lam0n4 ) 0 ) ( = ( + ( * ( - 1 ) lam0n3 ) ( * UndefCntr0_undef138 lam0n4 ) ) 0 ) ) ( and ( >= lam3n0 0 ) ( >= lam3n1 0 ) ( >= lam3n2 0 ) ( >= lam3n3 0 ) ( >= lam3n4 0 ) ( >= lam3n5 0 ) ( >= lam3n6 0 ) ( >= lam3n7 0 ) ( > ( + ( * 1 lam3n1 ) ( * 1 lam3n2 ) ( * 1 lam3n3 ) ( * UndefCntr0_CT lam3n4 ) ( * Nl5CT1 lam3n5 ) ( * Nl5CT2 lam3n6 ) ( * Nl5CT3 lam3n7 ) ( - 1 ( + ( + ( + Nl5CT3 ( * Nl5arg13 0 ) ) ( * Nl5arg23 0 ) ) ( * Nl5arg33 0 ) ) ) ) 0 ) ( = ( + ( * ( - 1 ) lam3n0 ) ( * ( - 1 ) lam3n1 ) ( * UndefCntr0_arg1 lam3n4 ) ( * Nl5arg11 lam3n5 ) ( * Nl5arg12 lam3n6 ) ( * Nl5arg13 lam3n7 ) ) 0 ) ( = ( + ( * UndefCntr0_arg2 lam3n4 ) ( * Nl5arg21 lam3n5 ) ( * Nl5arg22 lam3n6 ) ( * Nl5arg23 lam3n7 ) ) 0 ) ( = ( + ( * UndefCntr0_arg3 lam3n4 ) ( * Nl5arg31 lam3n5 ) ( * Nl5arg32 lam3n6 ) ( * Nl5arg33 lam3n7 ) ) 0 ) ( = ( + ( * 1 lam3n0 ) ( * ( - 1 ) lam3n2 ) ( * UndefCntr0_undef133 lam3n4 ) ( - ( + 0 ( * Nl5arg13 1 ) ) ) ) 0 ) ( = ( + ( * UndefCntr0_undef134 lam3n4 ) ( - ( + 0 ( * Nl5arg23 1 ) ) ) ) 0 ) ( = ( + ( * UndefCntr0_undef135 lam3n4 ) ( - ( + 0 ( * Nl5arg33 1 ) ) ) ) 0 ) ( = ( + ( * ( - 1 ) lam3n3 ) ( * UndefCntr0_undef138 lam3n4 ) ) 0 ) ) ))
(assert ( and ( <= ( + Nl5CT1 ( * Nl5arg11 FV_arg1_1 ) ( * Nl5arg21 FV_arg2_1 ) ( * Nl5arg31 FV_arg3_1 ) ) 0 ) ( <= ( + Nl5CT2 ( * Nl5arg12 FV_arg1_1 ) ( * Nl5arg22 FV_arg2_1 ) ( * Nl5arg32 FV_arg3_1 ) ) 0 ) ( <= ( + Nl5CT3 ( * Nl5arg13 FV_arg1_1 ) ( * Nl5arg23 FV_arg2_1 ) ( * Nl5arg33 FV_arg3_1 ) ) 0 ) ))
(assert ( or ( not ( = UndefCntr0_arg1 0 ) ) ( not ( = UndefCntr0_arg2 0 ) ) ( not ( = UndefCntr0_arg3 0 ) ) ( not ( = UndefCntr0_undef133 0 ) ) ( not ( = UndefCntr0_undef134 0 ) ) ( not ( = UndefCntr0_undef135 0 ) ) ( not ( = UndefCntr0_undef138 0 ) ) ( = UndefCntr0_CT 0 ) ))
(assert ( or ( and ( = UndefCntr0_arg1 0 ) ( = UndefCntr0_arg2 0 ) ( = UndefCntr0_arg3 0 ) ) ( or ( not ( = UndefCntr0_undef133 0 ) ) ( not ( = UndefCntr0_undef134 0 ) ) ( not ( = UndefCntr0_undef135 0 ) ) ( not ( = UndefCntr0_undef138 0 ) ) ) ))
(assert ( or ( and ( >= lam37n0 0 ) ( >= lam37n1 0 ) ( >= lam37n2 0 ) ( >= lam37n3 0 ) ( >= lam37n4 0 ) ( > ( + ( * 1 lam37n0 ) ( * 1 lam37n1 ) ( * Nl5CT1 lam37n2 ) ( * Nl5CT2 lam37n3 ) ( * Nl5CT3 lam37n4 ) ( - 1 ) ) 0 ) ( = ( + ( * ( - 1 ) lam37n0 ) ( * Nl5arg11 lam37n2 ) ( * Nl5arg12 lam37n3 ) ( * Nl5arg13 lam37n4 ) ) 0 ) ( = ( + ( * Nl5arg21 lam37n2 ) ( * Nl5arg22 lam37n3 ) ( * Nl5arg23 lam37n4 ) ) 0 ) ( = ( + ( * Nl5arg31 lam37n2 ) ( * Nl5arg32 lam37n3 ) ( * Nl5arg33 lam37n4 ) ) 0 ) ( = ( * ( - 1 ) lam37n1 ) 0 ) ) ( and ( and ( >= lam38n0 0 ) ( >= lam38n1 0 ) ( >= lam38n2 0 ) ( >= lam38n3 0 ) ( >= lam38n4 0 ) ( > ( + ( * 1 lam38n0 ) ( * 1 lam38n1 ) ( * Nl5CT1 lam38n2 ) ( * Nl5CT2 lam38n3 ) ( * Nl5CT3 lam38n4 ) ( - 1 ( + ( + 0 0 ) ( * 1 UndefDef0undef133_CT ) ) ) ) 0 ) ( = ( + ( * ( - 1 ) lam38n0 ) ( * Nl5arg11 lam38n2 ) ( * Nl5arg12 lam38n3 ) ( * Nl5arg13 lam38n4 ) ( - ( + ( - 1 ) ( * UndefDef0undef133_arg1 1 ) ) ) ) 0 ) ( = ( + ( * Nl5arg21 lam38n2 ) ( * Nl5arg22 lam38n3 ) ( * Nl5arg23 lam38n4 ) ( - ( * UndefDef0undef133_arg2 1 ) ) ) 0 ) ( = ( + ( * Nl5arg31 lam38n2 ) ( * Nl5arg32 lam38n3 ) ( * Nl5arg33 lam38n4 ) ( - ( * UndefDef0undef133_arg3 1 ) ) ) 0 ) ( = ( * ( - 1 ) lam38n1 ) 0 ) ) ( and ( >= lam39n0 0 ) ( >= lam39n1 0 ) ( >= lam39n2 0 ) ( >= lam39n3 0 ) ( >= lam39n4 0 ) ( > ( + ( * 1 lam39n0 ) ( * 1 lam39n1 ) ( * Nl5CT1 lam39n2 ) ( * Nl5CT2 lam39n3 ) ( * Nl5CT3 lam39n4 ) ( - 1 ( + 1 ( * ( - 1 ) UndefDef0undef133_CT ) ) ) ) 0 ) ( = ( + ( * ( - 1 ) lam39n0 ) ( * Nl5arg11 lam39n2 ) ( * Nl5arg12 lam39n3 ) ( * Nl5arg13 lam39n4 ) ( - ( * UndefDef0undef133_arg1 ( - 1 ) ) ) ) 0 ) ( = ( + ( * Nl5arg21 lam39n2 ) ( * Nl5arg22 lam39n3 ) ( * Nl5arg23 lam39n4 ) ( - ( * UndefDef0undef133_arg2 ( - 1 ) ) ) ) 0 ) ( = ( + ( * Nl5arg31 lam39n2 ) ( * Nl5arg32 lam39n3 ) ( * Nl5arg33 lam39n4 ) ( - ( * UndefDef0undef133_arg3 ( - 1 ) ) ) ) 0 ) ( = ( * ( - 1 ) lam39n1 ) 0 ) ) ( or ( = UndefCntr0_undef133 0 ) ( and ( >= lam40n0 0 ) ( >= lam40n1 0 ) ( >= lam40n2 0 ) ( >= lam40n3 0 ) ( >= lam40n4 0 ) ( > ( + ( * 1 lam40n0 ) ( * 1 lam40n1 ) ( * Nl5CT1 lam40n2 ) ( * Nl5CT2 lam40n3 ) ( * Nl5CT3 lam40n4 ) ( - 1 ( + ( + ( + ( + ( + ( + ( + UndefCntr0_CT 0 ) 0 ) 0 ) ( * UndefCntr0_undef133 UndefDef0undef133_CT ) ) 0 ) 0 ) 0 ) ) ) 0 ) ( = ( + ( * ( - 1 ) lam40n0 ) ( * Nl5arg11 lam40n2 ) ( * Nl5arg12 lam40n3 ) ( * Nl5arg13 lam40n4 ) ( - ( + UndefCntr0_arg1 ( * UndefDef0undef133_arg1 UndefCntr0_undef133 ) ) ) ) 0 ) ( = ( + ( * Nl5arg21 lam40n2 ) ( * Nl5arg22 lam40n3 ) ( * Nl5arg23 lam40n4 ) ( - ( + UndefCntr0_arg2 ( * UndefDef0undef133_arg2 UndefCntr0_undef133 ) ) ) ) 0 ) ( = ( + ( * Nl5arg31 lam40n2 ) ( * Nl5arg32 lam40n3 ) ( * Nl5arg33 lam40n4 ) ( - ( + UndefCntr0_arg3 ( * UndefDef0undef133_arg3 UndefCntr0_undef133 ) ) ) ) 0 ) ( = ( - UndefCntr0_undef134 ) 0 ) ( = ( - UndefCntr0_undef135 ) 0 ) ( = ( + ( * ( - 1 ) lam40n1 ) ( - UndefCntr0_undef138 ) ) 0 ) ) ) ) ))
(assert ( or ( = UndefCntr0_undef138 0 ) ( and ( and ( = UndefCntr0_arg1 0 ) ( = UndefCntr0_arg2 0 ) ( = UndefCntr0_arg3 0 ) ( = UndefCntr0_undef133 0 ) ( = UndefCntr0_undef134 0 ) ( = UndefCntr0_undef135 0 ) ) ( or ( and ( <= ( + 1 ( * ( - 1 ) FV_undef138_0 ) ) 0 ) ( <= ( + UndefCntr0_CT ( * UndefCntr0_undef138 FV_undef138_0 ) ( * UndefCntr0_arg1 FV_arg1_0 ) ( * UndefCntr0_arg2 FV_arg2_0 ) ( * UndefCntr0_arg3 FV_arg3_0 ) ( * UndefCntr0_undef133 FV_undef133_0 ) ( * UndefCntr0_undef134 FV_undef134_0 ) ( * UndefCntr0_undef135 FV_undef135_0 ) ) 0 ) ) ( and ( <= ( + 1 ( * ( - 1 ) FV_undef138_0 ) ) 0 ) ( <= ( + UndefCntr0_CT ( * UndefCntr0_undef138 FV_undef138_0 ) ( * UndefCntr0_arg1 FV_arg1_0 ) ( * UndefCntr0_arg2 FV_arg2_0 ) ( * UndefCntr0_arg3 FV_arg3_0 ) ( * UndefCntr0_undef133 FV_undef133_0 ) ( * UndefCntr0_undef134 FV_undef134_0 ) ( * UndefCntr0_undef135 FV_undef135_0 ) ) 0 ) ) ) ) ))
(assert ( and ( >= lam41n0 0 ) ( >= lam41n1 0 ) ( >= lam41n2 0 ) ( >= lam41n3 0 ) ( > ( + ( * Nl5CT1 lam41n1 ) ( * Nl5CT2 lam41n2 ) ( * Nl5CT3 lam41n3 ) ( - 1 ) ) 0 ) ( = ( + ( * 1 lam41n0 ) ( * Nl5arg11 lam41n1 ) ( * Nl5arg12 lam41n2 ) ( * Nl5arg13 lam41n3 ) ) 0 ) ( = ( + ( * Nl5arg21 lam41n1 ) ( * Nl5arg22 lam41n2 ) ( * Nl5arg23 lam41n3 ) ) 0 ) ( = ( + ( * Nl5arg31 lam41n1 ) ( * Nl5arg32 lam41n2 ) ( * Nl5arg33 lam41n3 ) ) 0 ) ))
(assert ( and ( and ( <= ( + Nl5CT1 ( * Nl5arg11 FV_arg1_2 ) ( * Nl5arg21 FV_arg2_2 ) ( * Nl5arg31 FV_arg3_2 ) ) 0 ) ( <= ( + Nl5CT2 ( * Nl5arg12 FV_arg1_2 ) ( * Nl5arg22 FV_arg2_2 ) ( * Nl5arg32 FV_arg3_2 ) ) 0 ) ( <= ( + Nl5CT3 ( * Nl5arg13 FV_arg1_2 ) ( * Nl5arg23 FV_arg2_2 ) ( * Nl5arg33 FV_arg3_2 ) ) 0 ) ) ( and ( <= ( + ( * ( - 1 ) FV_arg1_2 ) FV_undef133_2 ) 0 ) ( <= ( + 1 ( * ( - 1 ) FV_arg1_2 ) ) 0 ) ( <= ( + 1 ( * ( - 1 ) FV_undef133_2 ) ) 0 ) ( <= ( + 1 ( * ( - 1 ) FV_undef138_2 ) ) 0 ) ) ))
(check-sat)
(exit)
